<number of tasks>
50

<cycle time>
1000

<order strength>
0.202


<task times>
1 94
2 129
3 78
4 211
5 543
6 375
7 31
8 436
9 172
10 273
11 542
12 112
13 521
14 248
15 39
16 541
17 220
18 178
19 41
20 110
21 273
22 314
23 306
24 501
25 139
26 208
27 475
28 522
29 112
30 548
31 30
32 386
33 89
34 123
35 470
36 131
37 157
38 138
39 239
40 79
41 231
42 42
43 122
44 257
45 27
46 489
47 271
48 466
49 36
50 182

<precedence relations>
1,9
1,12
1,13
1,14
2,7
2,11
2,14
3,8
4,6
4,10
4,14
8,18
8,21
9,17
11,42
12,16
12,19
13,17
13,22
14,15
14,20
15,21
15,46
16,21
17,24
17,44
18,23
20,22
21,36
23,25
23,26
23,29
24,27
24,28
25,32
27,30
27,33
27,34
29,31
30,39
31,36
32,35
32,38
32,40
33,37
33,41
35,43
36,44
36,45
37,42
37,46
38,43
38,47
38,49
40,44
40,48
40,50

<end>
